c File: instances/30_0.40_3.col
c
c Description: Random graph of size 30 vertices and P(0.39999999999999997) of edges between any two vertices.
p col 30 435
e 1 3
e 1 4
e 1 5
e 1 6
e 1 13
e 1 17
e 1 20
e 1 22
e 1 23
e 1 26
e 1 28
e 2 5
e 2 7
e 2 10
e 2 11
e 2 12
e 2 13
e 2 16
e 2 22
e 2 24
e 2 26
e 2 28
e 3 6
e 3 7
e 3 8
e 3 9
e 3 10
e 3 12
e 3 21
e 3 22
e 3 23
e 3 24
e 3 26
e 3 27
e 3 28
e 3 30
e 4 6
e 4 9
e 4 11
e 4 12
e 4 14
e 4 15
e 4 16
e 4 18
e 4 21
e 4 22
e 4 23
e 4 25
e 4 30
e 5 7
e 5 17
e 5 21
e 5 23
e 5 24
e 5 26
e 5 28
e 5 30
e 6 9
e 6 13
e 6 14
e 6 17
e 6 23
e 6 24
e 6 29
e 7 9
e 7 11
e 7 12
e 7 16
e 7 17
e 7 18
e 7 24
e 7 25
e 7 26
e 7 27
e 7 28
e 7 30
e 8 10
e 8 13
e 8 18
e 8 22
e 8 24
e 8 25
e 8 26
e 8 30
e 9 11
e 9 13
e 9 15
e 9 19
e 9 23
e 9 25
e 9 29
e 10 11
e 10 13
e 10 18
e 10 22
e 10 25
e 10 28
e 11 15
e 11 17
e 11 20
e 11 25
e 12 13
e 12 16
e 12 18
e 12 21
e 12 22
e 12 26
e 12 27
e 13 15
e 13 20
e 13 23
e 13 28
e 14 19
e 14 21
e 14 22
e 14 23
e 14 27
e 14 30
e 15 16
e 15 18
e 15 21
e 15 27
e 15 28
e 16 20
e 16 24
e 17 19
e 17 21
e 17 29
e 18 19
e 18 20
e 18 21
e 18 22
e 18 27
e 19 25
e 19 27
e 19 28
e 19 29
e 19 30
e 20 22
e 20 24
e 21 23
e 21 24
e 21 25
e 21 26
e 21 27
e 22 23
e 22 25
e 22 29
e 22 30
e 23 25
e 23 28
e 23 30
e 24 28
e 24 29
e 25 26
e 25 28
e 25 29
e 25 30
e 26 27
e 26 30
e 27 29
e 28 29
e 28 30
e 29 30